10
75
0 1 5.93 6.77
0 2 5.83 6.97
0 3 3.63 34.56
0 4 3.74 35.0
0 5 3.65 34.18
0 6 3.81 34.5
0 7 3.75 34.9
0 8 3.55 34.76
0 9 3.81 33.9
1 2 5.97 6.3
1 3 3.77 35.01
1 4 3.78 34.18
1 5 3.77 33.7
1 6 3.65 35.1
1 7 3.55 33.74
1 8 3.8 35.51
1 9 3.5 34.55
2 3 3.57 34.0
2 4 3.68 33.9
2 5 3.88 34.5
2 6 3.65 35.6
2 7 3.87 33.7
2 8 3.51 35.34
2 9 3.78 35.09
3 4 5.35 6.77
3 5 5.13 6.7
3 6 3.83 34.0
3 7 3.83 34.25
3 8 3.58 35.57
3 9 3.81 33.7
4 5 4.1 6.7
4 6 3.62 33.7
4 7 3.59 35.5
4 8 3.6 33.99
4 9 3.76 34.27
5 6 3.77 35.4
5 7 3.64 34.6
5 8 3.75 34.83
5 9 3.82 35.26
6 7 5.39 3.02
6 8 5.89 2.65
6 9 5.28 2.29
7 8 5.04 2.3
7 9 5.85 2.57
8 9 5.45 3.0